p cnf 330 1411
89 106 123 140 157 174 191 208 0 
-89 -106 0 
-89 -123 0 
-89 -140 0 
-89 -157 0 
-89 -174 0 
-89 -191 0 
-89 -208 0 
-106 -123 0 
-106 -140 0 
-106 -157 0 
-106 -174 0 
-106 -191 0 
-106 -208 0 
-123 -140 0 
-123 -157 0 
-123 -174 0 
-123 -191 0 
-123 -208 0 
-140 -157 0 
-140 -174 0 
-140 -191 0 
-140 -208 0 
-157 -174 0 
-157 -191 0 
-157 -208 0 
-174 -191 0 
-174 -208 0 
-191 -208 0 
-89 -259 258 0 
-89 -259 234 0 
-106 -260 258 0 
-106 -260 235 0 
-123 -261 258 0 
-123 -261 236 0 
-140 -262 258 0 
-140 -262 237 0 
-157 -263 258 0 
-157 -263 238 0 
-174 -264 258 0 
-174 -264 239 0 
-191 -265 258 0 
-191 -265 240 0 
-208 -266 258 0 
-208 -266 241 0 
-89 -81 -267 234 0 
-89 -81 -267 250 0 
-89 -81 -267 -250 0 
-89 -268 235 0 
-89 -268 251 0 
-89 -268 -250 0 
-89 -269 236 0 
-89 -269 252 0 
-89 -269 -250 0 
-89 -270 237 0 
-89 -270 253 0 
-89 -270 -250 0 
-89 -271 238 0 
-89 -271 254 0 
-89 -271 -250 0 
-89 -272 239 0 
-89 -272 255 0 
-89 -272 -250 0 
-89 -273 240 0 
-89 -273 256 0 
-89 -273 -250 0 
-89 -274 241 0 
-89 -274 257 0 
-89 -274 -250 0 
-106 -275 234 0 
-106 -275 250 0 
-106 -275 -251 0 
-106 -82 -276 235 0 
-106 -82 -276 251 0 
-106 -82 -276 -251 0 
-106 -277 236 0 
-106 -277 252 0 
-106 -277 -251 0 
-106 -278 237 0 
-106 -278 253 0 
-106 -278 -251 0 
-106 -279 238 0 
-106 -279 254 0 
-106 -279 -251 0 
-106 -280 239 0 
-106 -280 255 0 
-106 -280 -251 0 
-106 -281 240 0 
-106 -281 256 0 
-106 -281 -251 0 
-106 -282 241 0 
-106 -282 257 0 
-106 -282 -251 0 
-123 -283 234 0 
-123 -283 250 0 
-123 -283 -252 0 
-123 -284 235 0 
-123 -284 251 0 
-123 -284 -252 0 
-123 -83 -285 236 0 
-123 -83 -285 252 0 
-123 -83 -285 -252 0 
-123 -286 237 0 
-123 -286 253 0 
-123 -286 -252 0 
-123 -287 238 0 
-123 -287 254 0 
-123 -287 -252 0 
-123 -288 239 0 
-123 -288 255 0 
-123 -288 -252 0 
-123 -289 240 0 
-123 -289 256 0 
-123 -289 -252 0 
-123 -290 241 0 
-123 -290 257 0 
-123 -290 -252 0 
-140 -291 234 0 
-140 -291 250 0 
-140 -291 -253 0 
-140 -292 235 0 
-140 -292 251 0 
-140 -292 -253 0 
-140 -293 236 0 
-140 -293 252 0 
-140 -293 -253 0 
-140 -84 -294 237 0 
-140 -84 -294 253 0 
-140 -84 -294 -253 0 
-140 -295 238 0 
-140 -295 254 0 
-140 -295 -253 0 
-140 -296 239 0 
-140 -296 255 0 
-140 -296 -253 0 
-140 -297 240 0 
-140 -297 256 0 
-140 -297 -253 0 
-140 -298 241 0 
-140 -298 257 0 
-140 -298 -253 0 
-157 -299 234 0 
-157 -299 250 0 
-157 -299 -254 0 
-157 -300 235 0 
-157 -300 251 0 
-157 -300 -254 0 
-157 -301 236 0 
-157 -301 252 0 
-157 -301 -254 0 
-157 -302 237 0 
-157 -302 253 0 
-157 -302 -254 0 
-157 -85 -303 238 0 
-157 -85 -303 254 0 
-157 -85 -303 -254 0 
-157 -304 239 0 
-157 -304 255 0 
-157 -304 -254 0 
-157 -305 240 0 
-157 -305 256 0 
-157 -305 -254 0 
-157 -306 241 0 
-157 -306 257 0 
-157 -306 -254 0 
-174 -307 234 0 
-174 -307 250 0 
-174 -307 -255 0 
-174 -308 235 0 
-174 -308 251 0 
-174 -308 -255 0 
-174 -309 236 0 
-174 -309 252 0 
-174 -309 -255 0 
-174 -310 237 0 
-174 -310 253 0 
-174 -310 -255 0 
-174 -311 238 0 
-174 -311 254 0 
-174 -311 -255 0 
-174 -86 -312 239 0 
-174 -86 -312 255 0 
-174 -86 -312 -255 0 
-174 -313 240 0 
-174 -313 256 0 
-174 -313 -255 0 
-174 -314 241 0 
-174 -314 257 0 
-174 -314 -255 0 
-191 -315 234 0 
-191 -315 250 0 
-191 -315 -256 0 
-191 -316 235 0 
-191 -316 251 0 
-191 -316 -256 0 
-191 -317 236 0 
-191 -317 252 0 
-191 -317 -256 0 
-191 -318 237 0 
-191 -318 253 0 
-191 -318 -256 0 
-191 -319 238 0 
-191 -319 254 0 
-191 -319 -256 0 
-191 -320 239 0 
-191 -320 255 0 
-191 -320 -256 0 
-191 -87 -321 240 0 
-191 -87 -321 256 0 
-191 -87 -321 -256 0 
-191 -322 241 0 
-191 -322 257 0 
-191 -322 -256 0 
-208 -323 234 0 
-208 -323 250 0 
-208 -323 -257 0 
-208 -324 235 0 
-208 -324 251 0 
-208 -324 -257 0 
-208 -325 236 0 
-208 -325 252 0 
-208 -325 -257 0 
-208 -326 237 0 
-208 -326 253 0 
-208 -326 -257 0 
-208 -327 238 0 
-208 -327 254 0 
-208 -327 -257 0 
-208 -328 239 0 
-208 -328 255 0 
-208 -328 -257 0 
-208 -329 240 0 
-208 -329 256 0 
-208 -329 -257 0 
-208 -88 -330 241 0 
-208 -88 -330 257 0 
-208 -88 -330 -257 0 
-1 234 0 
-89 -259 2 0 
-2 89 0 
-2 259 0 
-89 -81 -267 3 0 
-3 89 0 
-3 81 0 
-3 267 0 
-106 -275 4 0 
-4 106 0 
-4 275 0 
-123 -283 5 0 
-5 123 0 
-5 283 0 
-140 -291 6 0 
-6 140 0 
-6 291 0 
-157 -299 7 0 
-7 157 0 
-7 299 0 
-174 -307 8 0 
-8 174 0 
-8 307 0 
-191 -315 9 0 
-9 191 0 
-9 315 0 
-208 -323 10 0 
-10 208 0 
-10 323 0 
2 3 4 5 6 7 8 9 10 1 -234 0 
-11 235 0 
-106 -260 12 0 
-12 106 0 
-12 260 0 
-89 -268 13 0 
-13 89 0 
-13 268 0 
-106 -82 -276 14 0 
-14 106 0 
-14 82 0 
-14 276 0 
-123 -284 15 0 
-15 123 0 
-15 284 0 
-140 -292 16 0 
-16 140 0 
-16 292 0 
-157 -300 17 0 
-17 157 0 
-17 300 0 
-174 -308 18 0 
-18 174 0 
-18 308 0 
-191 -316 19 0 
-19 191 0 
-19 316 0 
-208 -324 20 0 
-20 208 0 
-20 324 0 
12 13 14 15 16 17 18 19 20 11 -235 0 
-21 236 0 
-123 -261 22 0 
-22 123 0 
-22 261 0 
-89 -269 23 0 
-23 89 0 
-23 269 0 
-106 -277 24 0 
-24 106 0 
-24 277 0 
-123 -83 -285 25 0 
-25 123 0 
-25 83 0 
-25 285 0 
-140 -293 26 0 
-26 140 0 
-26 293 0 
-157 -301 27 0 
-27 157 0 
-27 301 0 
-174 -309 28 0 
-28 174 0 
-28 309 0 
-191 -317 29 0 
-29 191 0 
-29 317 0 
-208 -325 30 0 
-30 208 0 
-30 325 0 
22 23 24 25 26 27 28 29 30 21 -236 0 
-31 237 0 
-140 -262 32 0 
-32 140 0 
-32 262 0 
-89 -270 33 0 
-33 89 0 
-33 270 0 
-106 -278 34 0 
-34 106 0 
-34 278 0 
-123 -286 35 0 
-35 123 0 
-35 286 0 
-140 -84 -294 36 0 
-36 140 0 
-36 84 0 
-36 294 0 
-157 -302 37 0 
-37 157 0 
-37 302 0 
-174 -310 38 0 
-38 174 0 
-38 310 0 
-191 -318 39 0 
-39 191 0 
-39 318 0 
-208 -326 40 0 
-40 208 0 
-40 326 0 
32 33 34 35 36 37 38 39 40 31 -237 0 
-41 238 0 
-157 -263 42 0 
-42 157 0 
-42 263 0 
-89 -271 43 0 
-43 89 0 
-43 271 0 
-106 -279 44 0 
-44 106 0 
-44 279 0 
-123 -287 45 0 
-45 123 0 
-45 287 0 
-140 -295 46 0 
-46 140 0 
-46 295 0 
-157 -85 -303 47 0 
-47 157 0 
-47 85 0 
-47 303 0 
-174 -311 48 0 
-48 174 0 
-48 311 0 
-191 -319 49 0 
-49 191 0 
-49 319 0 
-208 -327 50 0 
-50 208 0 
-50 327 0 
42 43 44 45 46 47 48 49 50 41 -238 0 
-51 239 0 
-174 -264 52 0 
-52 174 0 
-52 264 0 
-89 -272 53 0 
-53 89 0 
-53 272 0 
-106 -280 54 0 
-54 106 0 
-54 280 0 
-123 -288 55 0 
-55 123 0 
-55 288 0 
-140 -296 56 0 
-56 140 0 
-56 296 0 
-157 -304 57 0 
-57 157 0 
-57 304 0 
-174 -86 -312 58 0 
-58 174 0 
-58 86 0 
-58 312 0 
-191 -320 59 0 
-59 191 0 
-59 320 0 
-208 -328 60 0 
-60 208 0 
-60 328 0 
52 53 54 55 56 57 58 59 60 51 -239 0 
-61 240 0 
-191 -265 62 0 
-62 191 0 
-62 265 0 
-89 -273 63 0 
-63 89 0 
-63 273 0 
-106 -281 64 0 
-64 106 0 
-64 281 0 
-123 -289 65 0 
-65 123 0 
-65 289 0 
-140 -297 66 0 
-66 140 0 
-66 297 0 
-157 -305 67 0 
-67 157 0 
-67 305 0 
-174 -313 68 0 
-68 174 0 
-68 313 0 
-191 -87 -321 69 0 
-69 191 0 
-69 87 0 
-69 321 0 
-208 -329 70 0 
-70 208 0 
-70 329 0 
62 63 64 65 66 67 68 69 70 61 -240 0 
-71 241 0 
-208 -266 72 0 
-72 208 0 
-72 266 0 
-89 -274 73 0 
-73 89 0 
-73 274 0 
-106 -282 74 0 
-74 106 0 
-74 282 0 
-123 -290 75 0 
-75 123 0 
-75 290 0 
-140 -298 76 0 
-76 140 0 
-76 298 0 
-157 -306 77 0 
-77 157 0 
-77 306 0 
-174 -314 78 0 
-78 174 0 
-78 314 0 
-191 -322 79 0 
-79 191 0 
-79 322 0 
-208 -88 -330 80 0 
-80 208 0 
-80 88 0 
-80 330 0 
72 73 74 75 76 77 78 79 80 71 -241 0 
-81 242 0 
81 -242 0 
-82 243 0 
82 -243 0 
-83 244 0 
83 -244 0 
-84 245 0 
84 -245 0 
-85 246 0 
85 -246 0 
-86 247 0 
86 -247 0 
-87 248 0 
87 -248 0 
-88 249 0 
88 -249 0 
-89 -81 -267 90 0 
-90 89 0 
-90 81 0 
-90 267 0 
-89 -268 91 0 
-91 89 0 
-91 268 0 
-89 -269 92 0 
-92 89 0 
-92 269 0 
-89 -270 93 0 
-93 89 0 
-93 270 0 
-89 -271 94 0 
-94 89 0 
-94 271 0 
-89 -272 95 0 
-95 89 0 
-95 272 0 
-89 -273 96 0 
-96 89 0 
-96 273 0 
-89 -274 97 0 
-97 89 0 
-97 274 0 
90 91 92 93 94 95 96 97 -89 250 0 
-89 -81 -267 98 0 
-98 89 0 
-98 81 0 
-98 267 0 
-106 -275 99 0 
-99 106 0 
-99 275 0 
-123 -283 100 0 
-100 123 0 
-100 283 0 
-140 -291 101 0 
-101 140 0 
-101 291 0 
-157 -299 102 0 
-102 157 0 
-102 299 0 
-174 -307 103 0 
-103 174 0 
-103 307 0 
-191 -315 104 0 
-104 191 0 
-104 315 0 
-208 -323 105 0 
-105 208 0 
-105 323 0 
98 99 100 101 102 103 104 105 89 -250 0 
-106 -275 107 0 
-107 106 0 
-107 275 0 
-106 -82 -276 108 0 
-108 106 0 
-108 82 0 
-108 276 0 
-106 -277 109 0 
-109 106 0 
-109 277 0 
-106 -278 110 0 
-110 106 0 
-110 278 0 
-106 -279 111 0 
-111 106 0 
-111 279 0 
-106 -280 112 0 
-112 106 0 
-112 280 0 
-106 -281 113 0 
-113 106 0 
-113 281 0 
-106 -282 114 0 
-114 106 0 
-114 282 0 
107 108 109 110 111 112 113 114 -106 251 0 
-89 -268 115 0 
-115 89 0 
-115 268 0 
-106 -82 -276 116 0 
-116 106 0 
-116 82 0 
-116 276 0 
-123 -284 117 0 
-117 123 0 
-117 284 0 
-140 -292 118 0 
-118 140 0 
-118 292 0 
-157 -300 119 0 
-119 157 0 
-119 300 0 
-174 -308 120 0 
-120 174 0 
-120 308 0 
-191 -316 121 0 
-121 191 0 
-121 316 0 
-208 -324 122 0 
-122 208 0 
-122 324 0 
115 116 117 118 119 120 121 122 106 -251 0 
-123 -283 124 0 
-124 123 0 
-124 283 0 
-123 -284 125 0 
-125 123 0 
-125 284 0 
-123 -83 -285 126 0 
-126 123 0 
-126 83 0 
-126 285 0 
-123 -286 127 0 
-127 123 0 
-127 286 0 
-123 -287 128 0 
-128 123 0 
-128 287 0 
-123 -288 129 0 
-129 123 0 
-129 288 0 
-123 -289 130 0 
-130 123 0 
-130 289 0 
-123 -290 131 0 
-131 123 0 
-131 290 0 
124 125 126 127 128 129 130 131 -123 252 0 
-89 -269 132 0 
-132 89 0 
-132 269 0 
-106 -277 133 0 
-133 106 0 
-133 277 0 
-123 -83 -285 134 0 
-134 123 0 
-134 83 0 
-134 285 0 
-140 -293 135 0 
-135 140 0 
-135 293 0 
-157 -301 136 0 
-136 157 0 
-136 301 0 
-174 -309 137 0 
-137 174 0 
-137 309 0 
-191 -317 138 0 
-138 191 0 
-138 317 0 
-208 -325 139 0 
-139 208 0 
-139 325 0 
132 133 134 135 136 137 138 139 123 -252 0 
-140 -291 141 0 
-141 140 0 
-141 291 0 
-140 -292 142 0 
-142 140 0 
-142 292 0 
-140 -293 143 0 
-143 140 0 
-143 293 0 
-140 -84 -294 144 0 
-144 140 0 
-144 84 0 
-144 294 0 
-140 -295 145 0 
-145 140 0 
-145 295 0 
-140 -296 146 0 
-146 140 0 
-146 296 0 
-140 -297 147 0 
-147 140 0 
-147 297 0 
-140 -298 148 0 
-148 140 0 
-148 298 0 
141 142 143 144 145 146 147 148 -140 253 0 
-89 -270 149 0 
-149 89 0 
-149 270 0 
-106 -278 150 0 
-150 106 0 
-150 278 0 
-123 -286 151 0 
-151 123 0 
-151 286 0 
-140 -84 -294 152 0 
-152 140 0 
-152 84 0 
-152 294 0 
-157 -302 153 0 
-153 157 0 
-153 302 0 
-174 -310 154 0 
-154 174 0 
-154 310 0 
-191 -318 155 0 
-155 191 0 
-155 318 0 
-208 -326 156 0 
-156 208 0 
-156 326 0 
149 150 151 152 153 154 155 156 140 -253 0 
-157 -299 158 0 
-158 157 0 
-158 299 0 
-157 -300 159 0 
-159 157 0 
-159 300 0 
-157 -301 160 0 
-160 157 0 
-160 301 0 
-157 -302 161 0 
-161 157 0 
-161 302 0 
-157 -85 -303 162 0 
-162 157 0 
-162 85 0 
-162 303 0 
-157 -304 163 0 
-163 157 0 
-163 304 0 
-157 -305 164 0 
-164 157 0 
-164 305 0 
-157 -306 165 0 
-165 157 0 
-165 306 0 
158 159 160 161 162 163 164 165 -157 254 0 
-89 -271 166 0 
-166 89 0 
-166 271 0 
-106 -279 167 0 
-167 106 0 
-167 279 0 
-123 -287 168 0 
-168 123 0 
-168 287 0 
-140 -295 169 0 
-169 140 0 
-169 295 0 
-157 -85 -303 170 0 
-170 157 0 
-170 85 0 
-170 303 0 
-174 -311 171 0 
-171 174 0 
-171 311 0 
-191 -319 172 0 
-172 191 0 
-172 319 0 
-208 -327 173 0 
-173 208 0 
-173 327 0 
166 167 168 169 170 171 172 173 157 -254 0 
-174 -307 175 0 
-175 174 0 
-175 307 0 
-174 -308 176 0 
-176 174 0 
-176 308 0 
-174 -309 177 0 
-177 174 0 
-177 309 0 
-174 -310 178 0 
-178 174 0 
-178 310 0 
-174 -311 179 0 
-179 174 0 
-179 311 0 
-174 -86 -312 180 0 
-180 174 0 
-180 86 0 
-180 312 0 
-174 -313 181 0 
-181 174 0 
-181 313 0 
-174 -314 182 0 
-182 174 0 
-182 314 0 
175 176 177 178 179 180 181 182 -174 255 0 
-89 -272 183 0 
-183 89 0 
-183 272 0 
-106 -280 184 0 
-184 106 0 
-184 280 0 
-123 -288 185 0 
-185 123 0 
-185 288 0 
-140 -296 186 0 
-186 140 0 
-186 296 0 
-157 -304 187 0 
-187 157 0 
-187 304 0 
-174 -86 -312 188 0 
-188 174 0 
-188 86 0 
-188 312 0 
-191 -320 189 0 
-189 191 0 
-189 320 0 
-208 -328 190 0 
-190 208 0 
-190 328 0 
183 184 185 186 187 188 189 190 174 -255 0 
-191 -315 192 0 
-192 191 0 
-192 315 0 
-191 -316 193 0 
-193 191 0 
-193 316 0 
-191 -317 194 0 
-194 191 0 
-194 317 0 
-191 -318 195 0 
-195 191 0 
-195 318 0 
-191 -319 196 0 
-196 191 0 
-196 319 0 
-191 -320 197 0 
-197 191 0 
-197 320 0 
-191 -87 -321 198 0 
-198 191 0 
-198 87 0 
-198 321 0 
-191 -322 199 0 
-199 191 0 
-199 322 0 
192 193 194 195 196 197 198 199 -191 256 0 
-89 -273 200 0 
-200 89 0 
-200 273 0 
-106 -281 201 0 
-201 106 0 
-201 281 0 
-123 -289 202 0 
-202 123 0 
-202 289 0 
-140 -297 203 0 
-203 140 0 
-203 297 0 
-157 -305 204 0 
-204 157 0 
-204 305 0 
-174 -313 205 0 
-205 174 0 
-205 313 0 
-191 -87 -321 206 0 
-206 191 0 
-206 87 0 
-206 321 0 
-208 -329 207 0 
-207 208 0 
-207 329 0 
200 201 202 203 204 205 206 207 191 -256 0 
-208 -323 209 0 
-209 208 0 
-209 323 0 
-208 -324 210 0 
-210 208 0 
-210 324 0 
-208 -325 211 0 
-211 208 0 
-211 325 0 
-208 -326 212 0 
-212 208 0 
-212 326 0 
-208 -327 213 0 
-213 208 0 
-213 327 0 
-208 -328 214 0 
-214 208 0 
-214 328 0 
-208 -329 215 0 
-215 208 0 
-215 329 0 
-208 -88 -330 216 0 
-216 208 0 
-216 88 0 
-216 330 0 
209 210 211 212 213 214 215 216 -208 257 0 
-89 -274 217 0 
-217 89 0 
-217 274 0 
-106 -282 218 0 
-218 106 0 
-218 282 0 
-123 -290 219 0 
-219 123 0 
-219 290 0 
-140 -298 220 0 
-220 140 0 
-220 298 0 
-157 -306 221 0 
-221 157 0 
-221 306 0 
-174 -314 222 0 
-222 174 0 
-222 314 0 
-191 -322 223 0 
-223 191 0 
-223 322 0 
-208 -88 -330 224 0 
-224 208 0 
-224 88 0 
-224 330 0 
217 218 219 220 221 222 223 224 208 -257 0 
-225 258 0 
-89 -259 226 0 
-226 89 0 
-226 259 0 
-106 -260 227 0 
-227 106 0 
-227 260 0 
-123 -261 228 0 
-228 123 0 
-228 261 0 
-140 -262 229 0 
-229 140 0 
-229 262 0 
-157 -263 230 0 
-230 157 0 
-230 263 0 
-174 -264 231 0 
-231 174 0 
-231 264 0 
-191 -265 232 0 
-232 191 0 
-232 265 0 
-208 -266 233 0 
-233 208 0 
-233 266 0 
226 227 228 229 230 231 232 233 225 -258 0 
-267 -268 0 
-267 -269 0 
-267 -270 0 
-267 -271 0 
-267 -272 0 
-267 -273 0 
-267 -274 0 
-267 -275 0 
-267 -283 0 
-267 -291 0 
-267 -299 0 
-267 -307 0 
-267 -315 0 
-267 -323 0 
-268 -275 0 
-268 -276 0 
-268 -277 0 
-268 -278 0 
-268 -279 0 
-268 -280 0 
-268 -281 0 
-268 -282 0 
-268 -283 0 
-268 -291 0 
-268 -299 0 
-268 -307 0 
-268 -315 0 
-268 -323 0 
-269 -275 0 
-269 -283 0 
-269 -284 0 
-269 -285 0 
-269 -286 0 
-269 -287 0 
-269 -288 0 
-269 -289 0 
-269 -290 0 
-269 -291 0 
-269 -299 0 
-269 -307 0 
-269 -315 0 
-269 -323 0 
-270 -275 0 
-270 -283 0 
-270 -291 0 
-270 -292 0 
-270 -293 0 
-270 -294 0 
-270 -295 0 
-270 -296 0 
-270 -297 0 
-270 -298 0 
-270 -299 0 
-270 -307 0 
-270 -315 0 
-270 -323 0 
-271 -275 0 
-271 -283 0 
-271 -291 0 
-271 -299 0 
-271 -300 0 
-271 -301 0 
-271 -302 0 
-271 -303 0 
-271 -304 0 
-271 -305 0 
-271 -306 0 
-271 -307 0 
-271 -315 0 
-271 -323 0 
-272 -275 0 
-272 -283 0 
-272 -291 0 
-272 -299 0 
-272 -307 0 
-272 -308 0 
-272 -309 0 
-272 -310 0 
-272 -311 0 
-272 -312 0 
-272 -313 0 
-272 -314 0 
-272 -315 0 
-272 -323 0 
-273 -275 0 
-273 -283 0 
-273 -291 0 
-273 -299 0 
-273 -307 0 
-273 -315 0 
-273 -316 0 
-273 -317 0 
-273 -318 0 
-273 -319 0 
-273 -320 0 
-273 -321 0 
-273 -322 0 
-273 -323 0 
-274 -275 0 
-274 -283 0 
-274 -291 0 
-274 -299 0 
-274 -307 0 
-274 -315 0 
-274 -323 0 
-274 -324 0 
-274 -325 0 
-274 -326 0 
-274 -327 0 
-274 -328 0 
-274 -329 0 
-274 -330 0 
-275 -276 0 
-275 -284 0 
-275 -292 0 
-275 -300 0 
-275 -308 0 
-275 -316 0 
-275 -324 0 
-276 -277 0 
-276 -278 0 
-276 -279 0 
-276 -280 0 
-276 -281 0 
-276 -282 0 
-276 -284 0 
-276 -292 0 
-276 -300 0 
-276 -308 0 
-276 -316 0 
-276 -324 0 
-277 -283 0 
-277 -284 0 
-277 -285 0 
-277 -286 0 
-277 -287 0 
-277 -288 0 
-277 -289 0 
-277 -290 0 
-277 -292 0 
-277 -300 0 
-277 -308 0 
-277 -316 0 
-277 -324 0 
-278 -284 0 
-278 -291 0 
-278 -292 0 
-278 -293 0 
-278 -294 0 
-278 -295 0 
-278 -296 0 
-278 -297 0 
-278 -298 0 
-278 -300 0 
-278 -308 0 
-278 -316 0 
-278 -324 0 
-279 -284 0 
-279 -292 0 
-279 -299 0 
-279 -300 0 
-279 -301 0 
-279 -302 0 
-279 -303 0 
-279 -304 0 
-279 -305 0 
-279 -306 0 
-279 -308 0 
-279 -316 0 
-279 -324 0 
-280 -284 0 
-280 -292 0 
-280 -300 0 
-280 -307 0 
-280 -308 0 
-280 -309 0 
-280 -310 0 
-280 -311 0 
-280 -312 0 
-280 -313 0 
-280 -314 0 
-280 -316 0 
-280 -324 0 
-281 -284 0 
-281 -292 0 
-281 -300 0 
-281 -308 0 
-281 -315 0 
-281 -316 0 
-281 -317 0 
-281 -318 0 
-281 -319 0 
-281 -320 0 
-281 -321 0 
-281 -322 0 
-281 -324 0 
-282 -284 0 
-282 -292 0 
-282 -300 0 
-282 -308 0 
-282 -316 0 
-282 -323 0 
-282 -324 0 
-282 -325 0 
-282 -326 0 
-282 -327 0 
-282 -328 0 
-282 -329 0 
-282 -330 0 
-283 -285 0 
-283 -293 0 
-283 -301 0 
-283 -309 0 
-283 -317 0 
-283 -325 0 
-284 -285 0 
-284 -293 0 
-284 -301 0 
-284 -309 0 
-284 -317 0 
-284 -325 0 
-285 -286 0 
-285 -287 0 
-285 -288 0 
-285 -289 0 
-285 -290 0 
-285 -293 0 
-285 -301 0 
-285 -309 0 
-285 -317 0 
-285 -325 0 
-286 -291 0 
-286 -292 0 
-286 -293 0 
-286 -294 0 
-286 -295 0 
-286 -296 0 
-286 -297 0 
-286 -298 0 
-286 -301 0 
-286 -309 0 
-286 -317 0 
-286 -325 0 
-287 -293 0 
-287 -299 0 
-287 -300 0 
-287 -301 0 
-287 -302 0 
-287 -303 0 
-287 -304 0 
-287 -305 0 
-287 -306 0 
-287 -309 0 
-287 -317 0 
-287 -325 0 
-288 -293 0 
-288 -301 0 
-288 -307 0 
-288 -308 0 
-288 -309 0 
-288 -310 0 
-288 -311 0 
-288 -312 0 
-288 -313 0 
-288 -314 0 
-288 -317 0 
-288 -325 0 
-289 -293 0 
-289 -301 0 
-289 -309 0 
-289 -315 0 
-289 -316 0 
-289 -317 0 
-289 -318 0 
-289 -319 0 
-289 -320 0 
-289 -321 0 
-289 -322 0 
-289 -325 0 
-290 -293 0 
-290 -301 0 
-290 -309 0 
-290 -317 0 
-290 -323 0 
-290 -324 0 
-290 -325 0 
-290 -326 0 
-290 -327 0 
-290 -328 0 
-290 -329 0 
-290 -330 0 
-291 -294 0 
-291 -302 0 
-291 -310 0 
-291 -318 0 
-291 -326 0 
-292 -294 0 
-292 -302 0 
-292 -310 0 
-292 -318 0 
-292 -326 0 
-293 -294 0 
-293 -302 0 
-293 -310 0 
-293 -318 0 
-293 -326 0 
-294 -295 0 
-294 -296 0 
-294 -297 0 
-294 -298 0 
-294 -302 0 
-294 -310 0 
-294 -318 0 
-294 -326 0 
-295 -299 0 
-295 -300 0 
-295 -301 0 
-295 -302 0 
-295 -303 0 
-295 -304 0 
-295 -305 0 
-295 -306 0 
-295 -310 0 
-295 -318 0 
-295 -326 0 
-296 -302 0 
-296 -307 0 
-296 -308 0 
-296 -309 0 
-296 -310 0 
-296 -311 0 
-296 -312 0 
-296 -313 0 
-296 -314 0 
-296 -318 0 
-296 -326 0 
-297 -302 0 
-297 -310 0 
-297 -315 0 
-297 -316 0 
-297 -317 0 
-297 -318 0 
-297 -319 0 
-297 -320 0 
-297 -321 0 
-297 -322 0 
-297 -326 0 
-298 -302 0 
-298 -310 0 
-298 -318 0 
-298 -323 0 
-298 -324 0 
-298 -325 0 
-298 -326 0 
-298 -327 0 
-298 -328 0 
-298 -329 0 
-298 -330 0 
-299 -303 0 
-299 -311 0 
-299 -319 0 
-299 -327 0 
-300 -303 0 
-300 -311 0 
-300 -319 0 
-300 -327 0 
-301 -303 0 
-301 -311 0 
-301 -319 0 
-301 -327 0 
-302 -303 0 
-302 -311 0 
-302 -319 0 
-302 -327 0 
-303 -304 0 
-303 -305 0 
-303 -306 0 
-303 -311 0 
-303 -319 0 
-303 -327 0 
-304 -307 0 
-304 -308 0 
-304 -309 0 
-304 -310 0 
-304 -311 0 
-304 -312 0 
-304 -313 0 
-304 -314 0 
-304 -319 0 
-304 -327 0 
-305 -311 0 
-305 -315 0 
-305 -316 0 
-305 -317 0 
-305 -318 0 
-305 -319 0 
-305 -320 0 
-305 -321 0 
-305 -322 0 
-305 -327 0 
-306 -311 0 
-306 -319 0 
-306 -323 0 
-306 -324 0 
-306 -325 0 
-306 -326 0 
-306 -327 0 
-306 -328 0 
-306 -329 0 
-306 -330 0 
-307 -312 0 
-307 -320 0 
-307 -328 0 
-308 -312 0 
-308 -320 0 
-308 -328 0 
-309 -312 0 
-309 -320 0 
-309 -328 0 
-310 -312 0 
-310 -320 0 
-310 -328 0 
-311 -312 0 
-311 -320 0 
-311 -328 0 
-312 -313 0 
-312 -314 0 
-312 -320 0 
-312 -328 0 
-313 -315 0 
-313 -316 0 
-313 -317 0 
-313 -318 0 
-313 -319 0 
-313 -320 0 
-313 -321 0 
-313 -322 0 
-313 -328 0 
-314 -320 0 
-314 -323 0 
-314 -324 0 
-314 -325 0 
-314 -326 0 
-314 -327 0 
-314 -328 0 
-314 -329 0 
-314 -330 0 
-315 -321 0 
-315 -329 0 
-316 -321 0 
-316 -329 0 
-317 -321 0 
-317 -329 0 
-318 -321 0 
-318 -329 0 
-319 -321 0 
-319 -329 0 
-320 -321 0 
-320 -329 0 
-321 -322 0 
-321 -329 0 
-322 -323 0 
-322 -324 0 
-322 -325 0 
-322 -326 0 
-322 -327 0 
-322 -328 0 
-322 -329 0 
-322 -330 0 
-323 -330 0 
-324 -330 0 
-325 -330 0 
-326 -330 0 
-327 -330 0 
-328 -330 0 
-329 -330 0 
